c This Formular was created for testing purposes
c
c    horn? no
c    forced? no
c    mixed sat? no
c    clause length = 3
c
p cnf
1	11	20
2	12	4
3	13	6
4	14	-13
5	15	-3
6	16	-10
7	17	-18
8	18	7
9	19	11
10	20	2
-21	31	1
22	32	16
-23	33	21
24	34	27
25	35	12
-26	36	10
27	37	-8
28	-38	31
29	39	15
30	-40	1
%
0
